projet_m2_wvcp/reduced_wvcp_dzn/GEOM120a.clq.dzn
cliques=[{0,1,17,20,21,25,34,37,58,74,76,87,111},{0,1,17,20,21,25,34,37,58,74,76,87,111},{2,7,16,35,50,51,53,75,85,93},{3,18,19,27,30,32,38,44,52,60,71,73,110,116},{0,1,4,20,28,34,37,43,57,58,74,87,105,111},{0,1,5,4,21,34,37,40,56,86,88,113},{6,8,9,17,25,54,59,70,77,78},{7,11,16,33,53,64,65,75,83,90,93,109,112},{6,8,9,17,25,54,59,70,77,78},{6,8,9,17,25,54,59,70,77,78},{1,4,5,10,28,34,37,40,56,57,113,118},{0,1,5,11,12,21,34,40,56,84,86,88,97},{0,1,5,11,12,21,34,40,56,84,86,88,97},{13,15,24,26,29,39,41,45,49,61,62,66,99,100,107,108},{7,14,16,23,35,50,51,75,85,89,93,98},{13,15,24,26,29,39,41,45,49,61,62,66,99,100,107,108},{7,11,16,33,53,64,65,75,83,90,93,109,112},{0,1,17,20,28,34,37,43,57,58,74,76,87,105,111},{3,18,19,27,30,32,38,44,52,60,71,73,110,116},{3,18,19,27,30,32,38,44,52,60,71,73,110,116},{0,1,17,20,28,34,37,43,57,58,74,76,87,105,111},{0,1,17,20,21,25,34,37,58,74,76,87,111},{5,11,12,22,31,40,42,84,86,88,97},{7,14,16,23,35,50,51,75,85,89,93,98},{13,15,24,26,29,39,41,45,49,61,62,66,99,100,107,108},{0,1,17,20,21,25,34,37,58,74,76,87,111},{13,15,24,26,29,39,41,45,49,61,62,66,99,100,107,108},{3,18,19,27,30,32,38,44,52,60,71,73,110,116},{0,1,4,20,28,34,37,43,57,58,74,87,105,111},{13,15,24,26,29,39,41,45,49,61,62,66,99,100,107,108},{3,18,19,27,30,32,38,44,52,60,71,73,110,116},{5,4,12,31,40,42,56,86,88,97,113,118},{3,18,19,27,30,32,38,44,52,60,71,73,110,116},{7,11,16,33,53,64,65,75,83,90,93,109,112},{0,1,17,20,21,25,34,37,58,74,76,87,111},{7,14,16,23,35,51,50,75,85,89,93,98},{13,15,24,26,36,39,41,49,64,66,67,83,99,100,107},{0,1,17,20,28,34,37,43,57,58,74,76,87,105,111},{3,18,19,27,30,32,38,44,52,60,71,73,110,116},{13,15,24,26,29,39,41,45,49,61,62,66,99,100,107,108},{0,1,5,4,21,34,37,40,56,86,88,113},{13,15,24,26,29,39,41,45,49,61,62,66,99,100,107,108},{1,5,4,12,34,40,42,56,86,88,97,113,118},{0,1,17,20,28,34,37,43,57,58,74,76,87,105,111},{3,18,19,27,30,32,38,44,52,60,71,73,110,116},{13,15,24,26,29,39,41,45,49,61,62,66,99,100,107,108},{14,46,48,55,63,69,72,81,82,91,94,98,106},{3,8,9,19,47,60,71,73,102,110},{14,46,48,55,63,69,72,81,82,91,94,98,106},{13,15,24,26,29,39,41,45,49,61,62,66,99,100,107,108},{7,14,16,23,35,50,51,75,85,89,93,98},{7,14,16,23,35,51,50,75,85,89,93,98},{3,18,19,27,30,32,38,44,52,60,71,73,110,116},{7,11,16,33,53,64,65,75,83,90,93,109,112},{0,6,17,21,25,54,59,70,74,77,76,87,111},{7,14,16,23,50,55,85,89,98},{0,1,5,4,21,34,37,40,56,86,88,113},{0,1,4,20,28,34,37,43,57,58,74,87,105,111},{0,1,17,20,28,34,37,43,57,58,74,76,87,105,111},{0,17,20,21,25,54,59,58,70,74,76,87,111},{3,18,19,27,30,32,38,44,52,60,71,73,110,116},{13,15,24,26,29,39,41,45,49,61,62,66,99,100,107,108},{13,15,24,26,29,39,41,45,49,61,62,66,99,100,107,108},{14,46,48,55,63,69,72,81,82,91,94,98,106},{7,11,16,33,53,64,65,75,83,90,93,109,112},{7,11,16,33,53,64,65,75,83,90,93,109,112},{13,15,24,26,29,39,41,45,49,61,62,66,99,100,107,108},{13,15,24,26,36,39,41,49,64,66,67,83,99,100,107},{18,27,30,32,35,38,52,68,85,92,114,116,117},{14,46,48,55,63,69,72,81,82,91,94,98,106},{0,17,20,21,25,54,59,58,70,74,76,87,111},{3,18,19,27,30,32,38,44,52,60,71,73,110,116},{14,46,48,55,63,69,72,81,82,91,94,98,106},{3,18,19,27,30,32,38,44,52,60,71,73,110,116},{0,1,17,20,28,34,37,43,57,58,74,76,87,105,111},{7,11,16,33,53,64,65,75,83,90,93,109,112},{0,1,17,20,28,34,37,43,57,58,74,76,87,105,111},{6,8,9,17,25,54,59,70,77,78},{6,8,9,17,25,54,59,70,77,78},{14,23,46,55,69,72,79,81,89,94,98,101,115},{13,15,24,26,36,39,41,64,67,80,83,95,99},{14,46,48,55,63,69,72,81,82,91,94,98,106},{14,46,48,55,63,69,72,81,82,91,94,98,106},{7,11,16,33,53,64,65,75,83,90,93,109,112},{0,1,5,11,12,21,34,40,56,84,86,88,97},{7,14,16,23,35,51,50,75,85,89,93,98},{0,1,5,11,12,21,34,40,56,84,86,88,97},{0,1,17,20,28,34,37,43,57,58,74,76,87,105,111},{0,1,5,4,12,21,34,40,56,86,88,97,113},{7,14,16,23,35,50,51,75,85,89,93,98},{7,11,16,33,53,64,65,75,83,90,93,109,112},{14,23,46,55,69,72,81,91,94,98,106},{3,18,19,27,30,32,38,44,52,60,73,92,110,116},{7,11,16,33,53,64,65,75,83,90,93,109,112},{14,46,48,55,63,69,72,81,82,91,94,98,106},{13,15,24,26,36,39,41,64,67,80,83,95,99},{13,15,24,26,29,41,45,49,61,62,66,96,99,100,104,108},{0,1,5,11,12,21,34,40,56,84,86,88,97},{7,14,16,23,35,50,51,75,85,89,93,98},{13,15,24,26,29,39,41,45,49,61,62,66,99,100,107,108},{13,15,24,26,29,39,41,45,49,61,62,66,99,100,107,108},{14,23,46,55,69,72,79,81,89,94,98,101,115},{3,18,19,27,38,44,52,60,71,73,102,110,116},{13,15,24,33,36,39,64,65,67,80,83,95,103},{13,15,24,26,29,41,45,49,61,62,66,96,99,100,104,108},{0,1,17,20,28,34,37,43,57,58,74,76,87,105,111},{14,46,48,55,63,69,72,81,82,91,94,98,106},{13,15,24,26,29,39,41,45,49,61,62,66,99,100,107,108},{13,15,24,26,29,39,41,45,49,61,62,66,99,100,107,108},{7,11,16,33,53,64,65,75,83,90,93,109,112},{3,18,19,27,30,32,38,44,52,60,71,73,110,116},{0,1,17,20,28,34,37,43,57,58,74,76,87,105,111},{7,11,16,33,53,64,65,75,83,90,93,109,112},{0,1,4,5,21,34,37,40,56,86,88,113},{3,18,27,30,32,38,44,52,60,73,92,110,114,116},{14,23,46,55,69,72,79,81,89,94,98,101,115},{3,18,19,27,30,32,38,44,52,60,71,73,110,116},{3,18,27,30,32,35,38,52,85,92,114,117,116},{1,4,5,10,28,34,37,40,56,57,113,118}];
nr_cliques=119;
