projet_m2_wvcp/reduced_wvcp_dzn/GEOM120a.dzn
name="GEOM120a";
nr_vertices=119;
nr_edges=1421;
neighborhoods=[{1,2,4,5,6,11,12,17,20,21,25,28,34,37,40,43,54,56,57,58,59,70,74,76,77,84,86,87,88,97,105,111,113},{0,4,5,10,11,12,17,20,21,25,28,34,37,40,42,43,56,57,58,74,76,84,86,87,88,97,105,111,113,118},{0,3,6,7,8,9,11,12,16,21,25,35,50,51,52,53,54,73,75,77,84,85,86,88,90,93,109,110,112},{2,6,8,9,18,19,27,30,32,35,38,44,47,50,51,52,60,71,73,77,78,85,92,102,110,114,116,117},{0,1,5,10,12,20,21,28,31,34,37,40,42,43,56,57,58,74,86,87,88,97,105,111,113,118},{0,1,4,10,11,12,21,22,28,31,34,37,40,42,56,57,74,84,86,87,88,97,109,111,113,118},{0,2,3,8,9,17,19,21,25,52,53,54,59,70,73,74,76,77,78,87,102,110,111},{2,11,14,16,23,33,35,50,51,53,55,64,65,75,83,85,89,90,91,93,98,109,112},{2,3,6,9,17,19,21,25,47,52,54,59,60,70,71,73,76,77,78,102,110},{2,3,6,8,17,18,19,25,47,52,54,59,60,70,71,73,77,78,102,110},{1,4,5,28,31,34,37,40,42,56,57,86,88,113,118},{0,1,2,5,7,12,13,16,21,22,31,33,34,36,40,42,49,53,56,64,65,75,83,84,86,88,90,93,97,107,108,109,112},{0,1,2,4,5,11,13,21,22,31,33,34,40,42,49,53,56,64,65,66,83,84,86,88,90,97,107,108,109,112,113,118},{11,12,15,22,24,26,29,33,36,39,41,45,49,61,62,64,65,66,67,80,83,95,96,97,99,100,103,104,107,108,109,112},{7,16,23,33,35,46,48,50,51,53,55,63,65,69,72,75,79,81,82,85,89,90,91,93,94,98,101,106,112,115},{13,22,24,26,29,33,36,39,41,45,49,61,62,64,65,66,67,80,83,95,96,97,99,100,103,104,107,108,109},{2,7,11,14,23,33,35,36,50,51,53,55,64,65,75,83,84,85,89,90,91,93,98,103,109,112},{0,1,6,8,9,20,21,25,28,34,37,43,54,57,58,59,70,74,76,77,78,87,105,111},{3,9,19,27,30,32,35,38,44,50,51,52,60,68,71,73,85,89,92,102,110,114,116,117},{3,6,8,9,18,27,30,32,38,44,47,52,54,60,71,73,77,78,92,102,110,116},{0,1,4,17,21,25,28,34,37,43,54,57,58,59,70,74,76,87,105,111},{0,1,2,4,5,6,8,11,12,17,20,25,34,37,40,53,54,56,58,59,70,74,76,77,78,84,86,87,88,97,111,113},{5,11,12,13,15,24,26,31,33,36,40,42,49,53,64,65,66,67,75,83,84,86,88,90,97,100,107,108,109,112},{7,14,16,35,38,46,50,51,52,55,68,69,72,75,79,81,85,89,91,92,93,94,98,101,106,114,115,117},{13,15,22,26,29,33,36,39,41,45,49,61,62,64,65,66,67,80,83,95,96,99,100,103,104,107,108},{0,1,2,6,8,9,17,20,21,34,37,54,58,59,70,74,76,77,78,87,88,102,110,111},{13,15,22,24,29,36,39,41,45,49,61,62,64,66,67,80,83,95,96,99,100,104,107,108},{3,18,19,30,32,35,38,44,50,51,52,60,68,71,73,85,92,102,110,114,116,117},{0,1,4,5,10,17,20,34,37,40,43,56,57,58,74,76,87,105,111,113,118},{13,15,24,26,36,39,41,45,49,61,62,66,67,80,83,96,99,100,104,107,108},{3,18,19,27,32,35,38,44,51,52,60,68,71,73,85,92,110,114,116,117},{4,5,10,11,12,22,40,42,49,56,66,84,86,88,97,104,107,108,113,118},{3,18,19,27,30,35,38,44,52,60,68,71,73,85,92,110,114,116,117},{7,11,12,13,14,15,16,22,24,36,39,49,53,64,65,66,67,75,80,83,84,90,91,93,95,97,98,103,107,108,109,112},{0,1,4,5,10,11,12,17,20,21,25,28,37,40,42,43,56,57,58,74,76,84,86,87,88,97,105,111,113,118},{2,3,7,14,16,18,23,27,30,32,38,50,51,52,53,68,73,75,79,85,89,92,93,98,101,110,114,115,116,117},{11,13,15,16,22,24,26,29,33,39,41,49,64,65,66,67,75,80,83,90,91,95,97,99,100,103,107,108,109,112},{0,1,4,5,10,17,20,21,25,28,34,40,43,56,57,58,74,76,86,87,88,105,111,113,118},{3,18,19,23,27,30,32,35,44,50,51,52,60,68,71,73,85,89,92,101,102,110,114,116,117},{13,15,24,26,29,33,36,41,45,49,61,62,64,65,66,67,80,83,95,99,100,103,107,108},{0,1,4,5,10,11,12,21,22,28,31,34,37,42,56,57,84,86,87,88,97,113,118},{13,15,24,26,29,36,39,45,49,61,62,64,66,67,80,83,95,96,99,100,104,107,108},{1,4,5,10,11,12,22,31,34,40,49,56,66,84,86,88,97,107,108,113,118},{0,1,4,17,20,28,34,37,57,58,59,74,76,87,105,111,113},{3,18,19,27,30,32,38,47,52,60,71,73,92,102,110,114,116},{13,15,24,26,29,39,41,49,61,62,66,96,99,100,104,107,108},{14,23,48,55,63,69,72,79,81,82,89,91,94,98,101,106,115},{3,8,9,19,44,60,70,71,73,77,78,102,110},{14,46,55,63,69,72,81,82,91,94,98,103,106},{11,12,13,15,22,24,26,29,31,33,36,39,41,42,45,61,62,64,65,66,67,83,84,86,96,97,99,100,104,107,108,109},{2,3,7,14,16,18,23,27,35,38,51,52,53,55,68,69,73,75,79,85,89,90,92,93,98,101,112,114,115,117},{2,3,7,14,16,18,23,27,30,35,38,50,52,53,68,73,75,79,85,89,90,92,93,98,101,110,112,114,115,117},{2,3,6,8,9,18,19,23,27,30,32,35,38,44,50,51,60,68,71,73,77,85,89,92,102,110,114,116,117},{2,6,7,11,12,14,16,21,22,33,35,50,51,64,65,73,75,83,84,85,86,89,90,93,97,98,109,112},{0,2,6,8,9,17,19,20,21,25,58,59,70,73,74,76,77,78,87,102,110,111},{7,14,16,23,46,48,50,63,68,69,72,79,81,82,85,89,91,94,98,101,106,115},{0,1,4,5,10,11,12,21,28,31,34,37,40,42,57,84,86,88,97,113,118},{0,1,4,5,10,17,20,28,34,37,40,43,56,58,74,76,87,105,111,113,118},{0,1,4,17,20,21,25,28,34,37,43,54,57,59,70,74,76,87,105,111},{0,6,8,9,17,20,21,25,43,54,58,70,74,76,77,78,87,102,105,111},{3,8,9,18,19,27,30,32,38,44,47,52,71,73,92,102,110,114,116},{13,15,24,26,29,39,41,45,49,62,66,80,96,99,100,104,107,108},{13,15,24,26,29,39,41,45,49,61,66,96,99,100,104,107,108},{14,46,48,55,69,72,81,82,91,94,98,103,106},{7,11,12,13,15,16,22,24,26,33,36,39,41,49,53,65,66,67,75,80,83,84,90,91,93,95,97,99,100,103,107,108,109,112},{7,11,12,13,14,15,16,22,24,33,36,39,49,53,64,67,75,80,83,84,90,91,93,95,97,98,103,107,108,109,112},{12,13,15,22,24,26,29,31,33,36,39,41,42,45,49,61,62,64,67,83,96,97,99,100,104,107,108,109},{13,15,22,24,26,29,33,36,39,41,49,64,65,66,80,83,91,95,99,100,103,107,109},{18,23,27,30,32,35,38,50,51,52,55,69,72,79,81,85,89,92,101,114,115,116,117},{14,23,46,48,50,55,63,68,72,79,81,82,85,89,91,94,98,101,106,115},{0,6,8,9,17,20,21,25,47,54,58,59,74,76,77,78,87,102,111},{3,8,9,18,19,27,30,32,38,44,47,52,60,73,78,102,110,116},{14,23,46,48,55,63,68,69,79,81,82,89,91,94,98,101,106,115},{2,3,6,8,9,18,19,27,30,32,35,38,44,47,50,51,52,53,54,60,71,77,78,85,92,102,110,114,116},{0,1,4,5,6,17,20,21,25,28,34,37,43,54,57,58,59,70,76,77,78,87,88,105,111,113},{2,7,11,14,16,22,23,33,35,36,50,51,53,64,65,83,84,85,89,90,91,93,98,109,112},{0,1,6,8,17,20,21,25,28,34,37,43,54,57,58,59,70,74,77,78,87,105,111},{0,2,3,6,8,9,17,19,21,25,47,52,54,59,70,73,74,76,78,87,102,110,111},{3,6,8,9,17,19,21,25,47,54,59,70,71,73,74,76,77,87,102,110,111},{14,23,35,46,50,51,55,68,69,72,81,82,85,89,94,98,101,106,114,115,117},{13,15,24,26,29,33,36,39,41,61,64,65,67,83,95,99,100,103},{14,23,46,48,55,63,68,69,72,79,82,89,91,94,98,101,106,115},{14,46,48,55,63,69,72,79,81,91,94,98,101,106,115},{7,11,12,13,15,16,22,24,26,29,33,36,39,41,49,53,64,65,66,67,75,80,84,86,90,93,95,97,99,100,103,107,108,109,112},{0,1,2,5,11,12,16,21,22,31,33,34,40,42,49,53,56,64,65,75,83,86,88,90,93,97,107,108,109,112,113},{2,3,7,14,16,18,23,27,30,32,35,38,50,51,52,53,55,68,69,73,75,79,89,92,93,98,101,114,115,116,117},{0,1,2,4,5,10,11,12,21,22,31,34,37,40,42,49,53,56,83,84,87,88,90,97,107,108,109,112,113,118},{0,1,4,5,6,17,20,21,25,28,34,37,40,43,54,57,58,59,70,74,76,77,78,86,88,105,111,113},{0,1,2,4,5,10,11,12,21,22,25,31,34,37,40,42,56,74,84,86,87,90,97,107,109,111,113,118},{7,14,16,18,23,35,38,46,50,51,52,53,55,68,69,72,75,79,81,85,92,93,94,98,101,114,115,117},{2,7,11,12,14,16,22,33,36,50,51,53,64,65,75,83,84,86,88,93,97,98,107,109,112},{7,14,16,23,33,36,46,48,55,63,64,65,67,69,72,75,81,82,93,94,95,98,103,106},{3,18,19,23,27,30,32,35,38,44,50,51,52,60,68,73,85,89,101,110,114,115,116,117},{2,7,11,14,16,23,33,35,50,51,53,64,65,75,83,84,85,89,90,91,98,109,112},{14,23,46,48,55,63,69,72,79,81,82,89,91,98,101,106,115},{13,15,24,26,33,36,39,41,64,65,67,80,83,91,99,103},{13,15,24,26,29,41,45,49,61,62,66,99,100,104,108},{0,1,4,5,11,12,13,15,21,22,31,33,34,36,40,42,49,53,56,64,65,66,83,84,86,88,90,107,108,109,112,113,118},{7,14,16,23,33,35,46,48,50,51,53,55,63,65,69,72,75,79,81,82,85,89,90,91,93,94,101,103,106,112,115},{13,15,24,26,29,36,39,41,45,49,61,62,64,66,67,80,83,95,96,100,103,104,107,108},{13,15,22,24,26,29,36,39,41,45,49,61,62,64,66,67,80,83,96,99,104,107,108},{14,23,35,38,46,50,51,55,68,69,72,79,81,82,85,89,92,94,98,106,114,115,117},{3,6,8,9,18,19,25,27,38,44,47,52,54,59,60,70,71,73,77,78,110,116},{13,15,16,24,33,36,39,48,63,64,65,67,80,83,91,95,98,99},{13,15,24,26,29,31,41,45,49,61,62,66,96,99,100,107,108},{0,1,4,17,20,28,34,37,43,57,58,59,74,76,87,111},{14,23,46,48,55,63,69,72,79,81,82,91,94,98,101,115},{11,12,13,15,22,24,26,29,31,33,36,39,41,42,45,49,61,62,64,65,66,67,83,84,86,88,90,97,99,100,104,108,109,112},{11,12,13,15,22,24,26,29,31,33,36,39,41,42,45,49,61,62,64,65,66,83,84,86,96,97,99,100,104,107,109},{2,5,7,11,12,13,15,16,22,33,36,49,53,64,65,66,67,75,83,84,86,88,90,93,97,107,108,112},{2,3,6,8,9,18,19,25,27,30,32,35,38,44,47,51,52,54,60,71,73,77,78,92,102,114,116},{0,1,4,5,6,17,20,21,25,28,34,37,43,54,57,58,59,70,74,76,77,78,87,88,105,113},{2,7,11,12,13,14,16,22,33,36,50,51,53,64,65,75,83,84,86,90,93,97,98,107,109},{0,1,4,5,10,12,21,28,31,34,37,40,42,43,56,57,74,84,86,87,88,97,111,118},{3,18,23,27,30,32,35,38,44,50,51,52,60,68,73,79,85,89,92,101,110,115,116,117},{14,23,35,46,50,51,55,68,69,72,79,81,82,85,89,92,94,98,101,106,114,117},{3,18,19,27,30,32,35,38,44,52,60,68,71,73,85,92,102,110,114,117},{3,18,23,27,30,32,35,38,50,51,52,68,79,85,89,92,101,114,115,116},{1,4,5,10,12,28,31,34,37,40,42,56,57,86,88,97,113}];
weights=[10,10,10,10,10,10,10,10,10,10,10,9,9,9,9,9,9,9,9,9,9,8,8,8,8,8,8,8,8,8,8,8,8,7,7,7,7,7,7,7,7,7,7,7,7,7,7,7,7,6,6,6,6,6,6,6,6,6,6,6,6,6,6,6,5,5,5,5,5,5,5,5,5,4,4,4,4,4,4,4,4,4,4,3,3,3,3,3,3,3,3,3,3,3,3,3,3,2,2,2,2,2,2,2,2,2,2,1,1,1,1,1,1,1,1,1,1,1,1];
